# Objective value = 8792.29
I_0_0 1251
I_0_1 1.7619999999999993e+03
I_0_2 1.5109999999999991e+03
I_0_3 1.3200000000000002e+03
I_0_4 1594
I_0_5 1.3500000000000002e+03
I_0_6 1861
I_1_0 19
I_1_1 8.7013729554996644e-15
I_1_2 1.8999999999999993e+01
I_1_3 19
I_1_4 0
I_1_5 19
I_1_6 0
I_2_0 10
I_2_1 4.5796699765787707e-15
I_2_2 9.9999999999999964e+00
I_2_3 10
I_2_4 0
I_2_5 9.9999999999999982e+00
I_2_6 0
I_3_0 12
I_3_1 3.3306690738754696e-16
I_3_2 1.2000000000000005e+01
I_3_3 1.2000000000000011e+01
I_3_4 -1.1990408665951691e-14
I_3_5 1.1999999999999998e+01
I_3_6 2.6645352591003757e-15
I_4_0 69
I_4_1 3.1599722838393518e-14
I_4_2 6.8999999999999972e+01
I_4_3 2.9684588120915123e-14
I_4_4 69
I_4_5 69
I_4_6 0
I_5_0 198
I_5_1 99
I_5_2 1.9800000000000040e+02
I_5_3 198
I_5_4 1.9800000000000006e+02
I_5_5 99
I_5_6 2.0428103653102880e-13
I_6_0 51
I_6_1 1.4155343563970746e-15
I_6_2 51
I_6_3 51
I_6_4 0
I_6_5 51
I_6_6 0
I_7_0 110
I_7_1 5.4999999999999986e+01
I_7_2 2.8421709430404007e-13
I_7_3 1.0999999999999989e+02
I_7_4 5.4999999999999829e+01
I_7_5 1.0999999999999989e+02
I_7_6 5.4999999999999922e+01
I_8_0 150
I_8_1 75
I_8_2 -3.6948222259525210e-13
I_8_3 1.5000000000000014e+02
I_8_4 7.5000000000000142e+01
I_8_5 1.4999999999999997e+02
I_8_6 7.4999999999999943e+01
I_9_0 43
I_9_1 1.1934897514720433e-15
I_9_2 43
I_9_3 4.2999999999999993e+01
I_9_4 0
I_9_5 4.2999999999999993e+01
I_9_6 0
I_10_0 78
I_10_1 3.5721425817314412e-14
I_10_2 7.7999999999999972e+01
I_10_3 78
I_10_4 0
I_10_5 78
I_10_6 0
q_1_0 8.7013729554996644e-15
q_1_1 3.7999999999999986e+01
q_1_2 1.9000000000000007e+01
q_1_3 0
q_1_4 38
q_1_5 0
q_2_0 4.5796699765787707e-15
q_2_1 1.9999999999999993e+01
q_2_2 1.0000000000000004e+01
q_2_3 0
q_2_4 20
q_2_5 1.7763568394002505e-15
q_3_0 3.3306690738754696e-16
q_3_1 2.4000000000000007e+01
q_3_2 1.2000000000000005e+01
q_3_3 -2.2648549702353193e-14
q_3_4 2.4000000000000011e+01
q_3_5 4.4408920985006262e-15
q_4_0 3.1599722838393518e-14
q_4_1 1.3799999999999994e+02
q_4_2 5.8106297551319130e-14
q_4_3 1.3799999999999997e+02
q_4_4 69
q_4_5 0
q_5_0 0
q_5_1 1.9800000000000020e+02
q_5_2 9.8999999999999616e+01
q_5_3 9.9000000000000043e+01
q_5_4 -7.9936057773011271e-14
q_5_5 2.2737367544323206e-13
q_6_0 1.4155343563970746e-15
q_6_1 102
q_6_2 51
q_6_3 0
q_6_4 102
q_6_5 0
q_7_0 -1.3739009929736312e-14
q_7_1 1.4832579608992091e-13
q_7_2 1.6499999999999960e+02
q_7_3 1.3322676295501878e-14
q_7_4 1.1000000000000006e+02
q_7_5 -2.8421709430404007e-14
q_8_0 0
q_8_1 -4.0145664570445661e-13
q_8_2 2.2500000000000051e+02
q_8_3 0
q_8_4 1.4999999999999983e+02
q_8_5 -9.4146912488213275e-14
q_9_0 1.1934897514720433e-15
q_9_1 86
q_9_2 4.2999999999999993e+01
q_9_3 7.1054273576010019e-15
q_9_4 86
q_9_5 7.1054273576010019e-15
q_10_0 3.5721425817314412e-14
q_10_1 1.5599999999999994e+02
q_10_2 7.8000000000000028e+01
q_10_3 0
q_10_4 156
q_10_5 0
y_0_0 4.5796699765787707e-16
y_0_1 9.9999999999999956e-01
y_0_2 1
y_0_3 1
y_0_4 1
y_0_5 2.2204460492503131e-16
y_1_0 4.5796699765787707e-16
y_1_1 9.9999999999999956e-01
y_1_2 1
y_1_3 0
y_1_4 1
y_1_5 0
y_2_0 4.5796699765787707e-16
y_2_1 9.9999999999999956e-01
y_2_2 1
y_2_3 0
y_2_4 9.9999999999999978e-01
y_2_5 0
y_3_0 2.7755575615628914e-17
y_3_1 1.0000000000000004e+00
y_3_2 1.0000000000000009e+00
y_3_3 -9.9920072216264089e-16
y_3_4 9.9999999999999989e-01
y_3_5 2.2204460492503131e-16
y_4_0 4.5796699765787707e-16
y_4_1 9.9999999999999956e-01
y_4_2 4.3021142204224816e-16
y_4_3 1
y_4_4 1
y_4_5 0
y_5_0 0
y_5_1 1.0000000000000029e+00
y_5_2 1
y_5_3 1
y_5_4 -5.8286708792820718e-16
y_5_5 0
y_6_0 2.7755575615628914e-17
y_6_1 1
y_6_2 1
y_6_3 0
y_6_4 1
y_6_5 0
y_7_0 -2.4980018054066022e-16
y_7_1 1.6514567491299204e-15
y_7_2 9.9999999999999833e-01
y_7_3 0
y_7_4 9.9999999999999833e-01
y_7_5 0
y_8_0 0
y_8_1 -2.6090241078691179e-15
y_8_2 1.0000000000000022e+00
y_8_3 0
y_8_4 1
y_8_5 -2.2551405187698492e-16
y_9_0 2.7755575615628914e-17
y_9_1 1
y_9_2 9.9999999999999978e-01
y_9_3 0
y_9_4 9.9999999999999978e-01
y_9_5 0
y_10_0 4.5796699765787707e-16
y_10_1 9.9999999999999956e-01
y_10_2 1
y_10_3 0
y_10_4 1
y_10_5 0
x_0_1_0 0
x_0_1_1 -3.9829251008427491e-15
x_0_1_2 -2.3592239273284576e-15
x_0_1_3 0
x_0_1_4 1
x_0_1_5 0
x_0_2_0 0
x_0_2_1 0
x_0_2_2 1.0000000000000004e+00
x_0_2_3 0
x_0_2_4 0
x_0_2_5 0
x_0_3_0 0
x_0_3_1 0
x_0_3_2 0
x_0_3_3 0
x_0_3_4 0
x_0_3_5 0
x_0_4_0 -1.0824674490095276e-15
x_0_4_1 9.9999999999999911e-01
x_0_4_2 1.6792123247455493e-15
x_0_4_3 9.9999999999999811e-01
x_0_4_4 1
x_0_4_5 0
x_0_5_0 0
x_0_5_1 1.0000000000000031e+00
x_0_5_2 1
x_0_5_3 1.0000000000000018e+00
x_0_5_4 -2.4980018054066022e-16
x_0_5_5 4.4408920985006262e-16
x_0_6_0 0
x_0_6_1 0
x_0_6_2 0
x_0_6_3 0
x_0_6_4 0
x_0_6_5 0
x_0_7_0 0
x_0_7_1 0
x_0_7_2 0
x_0_7_3 0
x_0_7_4 0
x_0_7_5 0
x_0_8_0 0
x_0_8_1 0
x_0_8_2 0
x_0_8_3 0
x_0_8_4 0
x_0_8_5 0
x_0_9_0 0
x_0_9_1 0
x_0_9_2 0
x_0_9_3 0
x_0_9_4 0
x_0_9_5 0
x_0_10_0 0
x_0_10_1 0
x_0_10_2 0
x_0_10_3 0
x_0_10_4 0
x_0_10_5 0
x_1_2_0 0
x_1_2_1 0
x_1_2_2 0
x_1_2_3 0
x_1_2_4 0
x_1_2_5 0
x_1_3_0 0
x_1_3_1 0
x_1_3_2 0
x_1_3_3 0
x_1_3_4 0
x_1_3_5 0
x_1_4_0 9.1593399531575415e-16
x_1_4_1 6.38378239159465e-16
x_1_4_2 0
x_1_4_3 0
x_1_4_4 0
x_1_4_5 0
x_1_5_0 0
x_1_5_1 1.0000000000000020e+00
x_1_5_2 1
x_1_5_3 0
x_1_5_4 -9.1593399531575415e-16
x_1_5_5 0
x_1_6_0 2.7755575615628914e-17
x_1_6_1 1.0000000000000022e+00
x_1_6_2 0
x_1_6_3 0
x_1_6_4 -1.4988010832439613e-15
x_1_6_5 0
x_1_7_0 0
x_1_7_1 0
x_1_7_2 0
x_1_7_3 0
x_1_7_4 0
x_1_7_5 0
x_1_8_0 0
x_1_8_1 -2.6090241078691179e-15
x_1_8_2 1.0000000000000022e+00
x_1_8_3 0
x_1_8_4 1
x_1_8_5 0
x_1_9_0 0
x_1_9_1 0
x_1_9_2 0
x_1_9_3 0
x_1_9_4 0
x_1_9_5 0
x_1_10_0 0
x_1_10_1 0
x_1_10_2 0
x_1_10_3 0
x_1_10_4 0
x_1_10_5 0
x_2_3_0 0
x_2_3_1 0
x_2_3_2 -8.3266726846886741e-17
x_2_3_3 0
x_2_3_4 0
x_2_3_5 0
x_2_4_0 1.6514567491299204e-15
x_2_4_1 9.9999999999999889e-01
x_2_4_2 -8.1878948066105295e-16
x_2_4_3 -2.2204460492503131e-16
x_2_4_4 9.9999999999999978e-01
x_2_4_5 0
x_2_5_0 0
x_2_5_1 0
x_2_5_2 0
x_2_5_3 0
x_2_5_4 0
x_2_5_5 0
x_2_6_0 0
x_2_6_1 0
x_2_6_2 0
x_2_6_3 0
x_2_6_4 0
x_2_6_5 0
x_2_7_0 -4.1633363423443370e-16
x_2_7_1 0
x_2_7_2 0
x_2_7_3 0
x_2_7_4 0
x_2_7_5 0
x_2_8_0 0
x_2_8_1 0
x_2_8_2 0
x_2_8_3 0
x_2_8_4 0
x_2_8_5 0
x_2_9_0 -5.6898930012039273e-16
x_2_9_1 5.6898930012039273e-16
x_2_9_2 -8.6042284408449632e-16
x_2_9_3 0
x_2_9_4 0
x_2_9_5 0
x_2_10_0 2.7755575615628914e-17
x_2_10_1 9.9999999999999956e-01
x_2_10_2 1.0000000000000013e+00
x_2_10_3 0
x_2_10_4 1
x_2_10_5 0
x_3_4_0 0
x_3_4_1 0
x_3_4_2 0
x_3_4_3 0
x_3_4_4 0
x_3_4_5 0
x_3_5_0 0
x_3_5_1 0
x_3_5_2 0
x_3_5_3 0
x_3_5_4 0
x_3_5_5 0
x_3_6_0 -1.9428902930940239e-16
x_3_6_1 1
x_3_6_2 1
x_3_6_3 1.1102230246251565e-16
x_3_6_4 1.0000000000000018e+00
x_3_6_5 0
x_3_7_0 0
x_3_7_1 1.9567680809018384e-15
x_3_7_2 1.0000000000000002e+00
x_3_7_3 -7.7715611723760958e-16
x_3_7_4 9.9999999999999778e-01
x_3_7_5 -2.0261570199409107e-15
x_3_8_0 0
x_3_8_1 0
x_3_8_2 0
x_3_8_3 0
x_3_8_4 0
x_3_8_5 1.8041124150158794e-15
x_3_9_0 7.7715611723760958e-16
x_3_9_1 9.9999999999999778e-01
x_3_9_2 2.55351295663786e-15
x_3_9_3 0
x_3_9_4 1.7277845820728999e-15
x_3_9_5 0
x_3_10_0 0
x_3_10_1 0
x_3_10_2 0
x_3_10_3 0
x_3_10_4 0
x_3_10_5 0
x_4_5_0 0
x_4_5_1 0
x_4_5_2 0
x_4_5_3 9.9999999999999856e-01
x_4_5_4 0
x_4_5_5 0
x_4_6_0 0
x_4_6_1 0
x_4_6_2 0
x_4_6_3 0
x_4_6_4 0
x_4_6_5 0
x_4_7_0 0
x_4_7_1 0
x_4_7_2 0
x_4_7_3 4.1910919179599659e-15
x_4_7_4 0
x_4_7_5 1.3461454173580023e-15
x_4_8_0 0
x_4_8_1 0
x_4_8_2 0
x_4_8_3 0
x_4_8_4 0
x_4_8_5 0
x_4_9_0 1.3877787807814457e-16
x_4_9_1 0
x_4_9_2 0
x_4_9_3 0
x_4_9_4 0
x_4_9_5 0
x_4_10_0 0
x_4_10_1 0
x_4_10_2 0
x_4_10_3 0
x_4_10_4 0
x_4_10_5 -1.3461454173580023e-15
x_5_6_0 0
x_5_6_1 0
x_5_6_2 0
x_5_6_3 0
x_5_6_4 0
x_5_6_5 0
x_5_7_0 0
x_5_7_1 0
x_5_7_2 0
x_5_7_3 0
x_5_7_4 0
x_5_7_5 0
x_5_8_0 0
x_5_8_1 0
x_5_8_2 0
x_5_8_3 0
x_5_8_4 0
x_5_8_5 0
x_5_9_0 0
x_5_9_1 0
x_5_9_2 0
x_5_9_3 0
x_5_9_4 0
x_5_9_5 0
x_5_10_0 0
x_5_10_1 0
x_5_10_2 0
x_5_10_3 0
x_5_10_4 0
x_5_10_5 0
x_6_7_0 0
x_6_7_1 0
x_6_7_2 -2.5396351688300456e-15
x_6_7_3 -1.1102230246251565e-16
x_6_7_4 9.0205620750793969e-16
x_6_7_5 0
x_6_8_0 0
x_6_8_1 -2.4980018054066022e-15
x_6_8_2 1.0000000000000022e+00
x_6_8_3 0
x_6_8_4 1
x_6_8_5 0
x_6_9_0 0
x_6_9_1 0
x_6_9_2 0
x_6_9_3 0
x_6_9_4 0
x_6_9_5 0
x_6_10_0 0
x_6_10_1 0
x_6_10_2 0
x_6_10_3 0
x_6_10_4 0
x_6_10_5 0
x_7_8_0 0
x_7_8_1 0
x_7_8_2 0
x_7_8_3 0
x_7_8_4 0
x_7_8_5 0
x_7_9_0 -2.4980018054066022e-16
x_7_9_1 2.1510571102112408e-15
x_7_9_2 9.9999999999999889e-01
x_7_9_3 0
x_7_9_4 9.9999999999999856e-01
x_7_9_5 0
x_7_10_0 0
x_7_10_1 0
x_7_10_2 -8.6042284408449632e-16
x_7_10_3 0
x_7_10_4 0
x_7_10_5 1.3461454173580023e-15
x_8_9_0 0
x_8_9_1 0
x_8_9_2 0
x_8_9_3 0
x_8_9_4 0
x_8_9_5 0
x_8_10_0 0
x_8_10_1 0
x_8_10_2 0
x_8_10_3 0
x_8_10_4 0
x_8_10_5 0
x_9_10_0 8.8817841970012523e-16
x_9_10_1 9.9999999999999956e-01
x_9_10_2 1
x_9_10_3 0
x_9_10_4 9.9999999999999978e-01
x_9_10_5 0
